Problem:    varInteiras2
Rows:       6
Columns:    6 (3 integer, 3 binary)
Non-zeros:  18
Status:     INTEGER OPTIMAL
Objective:  z = 4100000 (MINimum)

   No.   Row name        Activity     Lower bound   Upper bound
------ ------------    ------------- ------------- -------------
     1 z                     4.1e+06                             
     2 a                       80000         80000               
     3 b                       60000         50000               
     4 c                           0                          -0 
     5 d                           0                          -0 
     6 e                           0                          -0 

   No. Column name       Activity     Lower bound   Upper bound
------ ------------    ------------- ------------- -------------
     1 x1                     200000             0               
     2 x2                          0             0               
     3 x3                          0             0               
     4 y1           *              1             0             1 
     5 y2           *              0             0             1 
     6 y3           *              0             0             1 

Integer feasibility conditions:

KKT.PE: max.abs.err = 0.00e+00 on row 0
        max.rel.err = 0.00e+00 on row 0
        High quality

KKT.PB: max.abs.err = 0.00e+00 on row 0
        max.rel.err = 0.00e+00 on row 0
        High quality

End of output
